22      4       
10      10      10      10      
0       0       0       0       0       4       2       3       4       5       
5       7       0       8       0       4       9       10      12      13      
5       0       2       0       0       4       9       11      12      13      
9       0       9       0       0       2       7       13      
2       3       0       0       0       3       6       8       12      
7       1       0       2       9       3       9       10      13      
7       6       0       0       0       2       8       12      
5       0       4       0       0       2       9       10      
5       8       10      0       9       4       14      15      18      21      
4       8       7       4       6       2       11      15      
8       7       0       0       9       4       14      16      18      21      
6       0       10      0       0       4       14      15      18      21      
5       0       8       4       8       4       14      15      18      21      
3       10      5       7       0       2       17      20      
3       0       0       6       8       1       16      
1       7       0       0       0       2       17      20      
8       0       0       5       5       1       19      
4       2       0       0       9       1       22      
3       10      2       2       0       1       22      
9       5       4       0       5       1       22      
2       0       0       1       0       1       22      
0       0       0       0       0       0       
